start_domain = 16;
target_domain = 6;
vnflist_size = 8;
vnflist = [10,4,1,1,1,5,4,10];
vnf_arcs = [|1,2|2,3|2,4|2,5|2,6|6,7|7,8|];
proximity_to_source = [0,1,0,0,0,0,0,0];
proximity_to_destination = [0,0,0,0,0,0,1,0];
n_domain_constraints = 1;
domain_constraints = [|12,3,1,1|];
